5166
18 15 13  7 22 16 11  5  9 10 12 17  8 28 21  6 25 20  4 27  1 19 26 24  3 23 14  2 
11 14 16 22  7 13 18 24 20 19 17 12 21  1  8 23  4  9 25  2 28 10  3  5 26  6 15 27 
18 21  9  1 28 20 11  3 13 12 10 19 14 22 15  2 25 16  4 23  7 17 24 26  5 27  8  6
11  8 20 28  1  9 18 26 16 17 19 10 15  7 14 27  4 13 25  6 22 12  5  3 24  2 21 23

